lbl,CUST NO.,READY TIME,XCOORD.,YCOORD.,DEMAND,DUE DATE,SERVICE TIME
2,161,76,10,118,10,181,90
2,104,100,8,119,20,238,90
2,18,200,8,124,10,328,90
2,54,348,4,125,30,369,90
2,185,350,5,119,20,558,90
2,132,398,0,117,30,702,90
2,7,582,1,109,10,714,90
2,181,688,6,113,20,800,90
2,117,763,7,115,10,910,90
2,49,889,9,114,20,969,90
